; benchmark generated from python API
(set-info :status unknown)
(declare-fun R () (_ BitVec 32))
(declare-fun rdi () (_ BitVec 64))
(assert
 (let (($x4783 (= (_ bv1 32) R)))
 (let ((?x6 ((_ extract 31 0) rdi)))
 (let ((?x5235 (bvadd (_ bv1 32) ?x6)))
 (let ((?x4978 ((_ extract 31 31) ?x5235)))
 (let ((?x5388 (concat (concat (concat (concat (concat ?x4978 ?x4978) ?x4978) ?x4978) ?x4978) ?x4978)))
 (let ((?x2879 (concat (concat (concat (concat (concat ?x5388 ?x4978) ?x4978) ?x4978) ?x4978) ?x4978)))
 (let ((?x4510 (concat (concat (concat (concat (concat ?x2879 ?x4978) ?x4978) ?x4978) ?x4978) ?x4978)))
 (let ((?x5479 (concat (concat (concat (concat (concat ?x4510 ?x4978) ?x4978) ?x4978) ?x4978) ?x4978)))
 (let ((?x2680 (concat (concat (concat (concat (concat ?x5479 ?x4978) ?x4978) ?x4978) ?x4978) ?x4978)))
 (let ((?x5024 (concat (concat (concat (concat (concat ?x2680 ?x4978) ?x4978) ?x4978) ?x4978) ?x4978)))
 (let ((?x5441 (concat (concat ?x5024 ?x4978) ?x5235)))
 (let ((?x5629 (bvashr ?x5441 (_ bv31 64))))
 (let ((?x5390 ((_ extract 31 31) ?x5629)))
 (let ((?x5158 (concat (_ bv0 31) ?x5390)))
 (let ((?x4807 (bvmul (_ bv4294967295 32) ?x5158)))
 (let ((?x5062 (bvadd (bvadd (_ bv1 1) ((_ extract 0 0) rdi)) ?x5390)))
 (let ((?x5345 (concat (_ bv0 31) ?x5062)))
 (let ((?x3923 (bvadd ?x5345 ?x4807)))
 (let (($x4642 (= (_ bv0 32) ?x3923)))
 (let (($x4500 (and $x4642 $x4783)))
 (let (($x4557 (= (_ bv0 32) R)))
 (let (($x4764 (and (distinct (_ bv0 32) ?x3923) true)))
 (let (($x5429 (and $x4764 $x4557)))
 (let (($x5527 (or $x5429 $x4500)))
 (let (($x5365 (not $x5527)))
 (let ((?x31 ((_ extract 7 0) rdi)))
 (let ((?x25 (bvand ?x31 (_ bv1 8))))
 (let (($x69 (and (distinct (_ bv0 8) ?x25) true)))
 (let (($x4997 (and $x69 $x4783)))
 (let (($x14 (= (_ bv0 8) ?x25)))
 (let ((?x89 ((_ extract 31 31) rdi)))
 (let ((?x100 (concat (_ bv0 31) ?x89)))
 (let ((?x101 (bvadd ?x6 ?x100)))
 (let ((?x102 ((_ extract 31 31) ?x101)))
 (let ((?x87 (concat (concat (concat (concat (concat ?x102 ?x102) ?x102) ?x102) ?x102) ?x102)))
 (let ((?x108 (concat (concat (concat (concat (concat ?x87 ?x102) ?x102) ?x102) ?x102) ?x102)))
 (let ((?x113 (concat (concat (concat (concat (concat ?x108 ?x102) ?x102) ?x102) ?x102) ?x102)))
 (let ((?x118 (concat (concat (concat (concat (concat ?x113 ?x102) ?x102) ?x102) ?x102) ?x102)))
 (let ((?x123 (concat (concat (concat (concat (concat ?x118 ?x102) ?x102) ?x102) ?x102) ?x102)))
 (let ((?x128 (concat (concat (concat (concat (concat ?x123 ?x102) ?x102) ?x102) ?x102) ?x102)))
 (let ((?x130 (concat (concat ?x128 ?x102) ?x101)))
 (let ((?x131 (bvashr ?x130 (_ bv1 64))))
 (let ((?x172 ((_ extract 7 0) ?x131)))
 (let ((?x149 (bvand ?x172 (_ bv1 8))))
 (let (($x229 (and (distinct (_ bv0 8) ?x149) true)))
 (let (($x4926 (and $x229 $x14 $x4557)))
 (let (($x155 (= (_ bv0 8) ?x149)))
 (let ((?x315 ((_ extract 31 31) ?x131)))
 (let ((?x298 (concat (_ bv0 31) ?x315)))
 (let ((?x132 ((_ extract 31 0) ?x131)))
 (let ((?x321 (bvadd ?x132 ?x298)))
 (let ((?x320 ((_ extract 31 31) ?x321)))
 (let ((?x322 (concat (concat (concat (concat (concat ?x320 ?x320) ?x320) ?x320) ?x320) ?x320)))
 (let ((?x295 (concat (concat (concat (concat (concat ?x322 ?x320) ?x320) ?x320) ?x320) ?x320)))
 (let ((?x262 (concat (concat (concat (concat (concat ?x295 ?x320) ?x320) ?x320) ?x320) ?x320)))
 (let ((?x310 (concat (concat (concat (concat (concat ?x262 ?x320) ?x320) ?x320) ?x320) ?x320)))
 (let ((?x289 (concat (concat (concat (concat (concat ?x310 ?x320) ?x320) ?x320) ?x320) ?x320)))
 (let ((?x280 (concat (concat (concat (concat (concat ?x289 ?x320) ?x320) ?x320) ?x320) ?x320)))
 (let ((?x318 (concat (concat ?x280 ?x320) ?x321)))
 (let ((?x277 (bvashr ?x318 (_ bv1 64))))
 (let ((?x412 ((_ extract 7 0) ?x277)))
 (let ((?x398 (bvand ?x412 (_ bv1 8))))
 (let (($x469 (and (distinct (_ bv0 8) ?x398) true)))
 (let (($x4159 (and $x469 $x155 $x14 $x4557)))
 (let (($x356 (= (_ bv0 8) ?x398)))
 (let ((?x452 ((_ extract 31 31) ?x277)))
 (let ((?x531 (concat (_ bv0 31) ?x452)))
 (let ((?x317 ((_ extract 31 0) ?x277)))
 (let ((?x475 (bvadd ?x317 ?x531)))
 (let ((?x443 ((_ extract 31 31) ?x475)))
 (let ((?x483 (concat (concat (concat (concat (concat ?x443 ?x443) ?x443) ?x443) ?x443) ?x443)))
 (let ((?x512 (concat (concat (concat (concat (concat ?x483 ?x443) ?x443) ?x443) ?x443) ?x443)))
 (let ((?x444 (concat (concat (concat (concat (concat ?x512 ?x443) ?x443) ?x443) ?x443) ?x443)))
 (let ((?x439 (concat (concat (concat (concat (concat ?x444 ?x443) ?x443) ?x443) ?x443) ?x443)))
 (let ((?x518 (concat (concat (concat (concat (concat ?x439 ?x443) ?x443) ?x443) ?x443) ?x443)))
 (let ((?x464 (concat (concat (concat (concat (concat ?x518 ?x443) ?x443) ?x443) ?x443) ?x443)))
 (let ((?x498 (concat (concat ?x464 ?x443) ?x475)))
 (let ((?x514 (bvashr ?x498 (_ bv1 64))))
 (let ((?x504 ((_ extract 7 0) ?x514)))
 (let ((?x456 (bvand ?x504 (_ bv1 8))))
 (let (($x541 (and (distinct (_ bv0 8) ?x456) true)))
 (let (($x3994 (and $x541 $x356 $x155 $x14 $x4557)))
 (let (($x572 (= (_ bv0 8) ?x456)))
 (let ((?x664 ((_ extract 31 31) ?x514)))
 (let ((?x685 (concat (_ bv0 31) ?x664)))
 (let ((?x521 ((_ extract 31 0) ?x514)))
 (let ((?x577 (bvadd ?x521 ?x685)))
 (let ((?x560 ((_ extract 31 31) ?x577)))
 (let ((?x461 (concat (concat (concat (concat (concat ?x560 ?x560) ?x560) ?x560) ?x560) ?x560)))
 (let ((?x7 (concat (concat (concat (concat (concat ?x461 ?x560) ?x560) ?x560) ?x560) ?x560)))
 (let ((?x694 (concat (concat (concat (concat (concat ?x7 ?x560) ?x560) ?x560) ?x560) ?x560)))
 (let ((?x548 (concat (concat (concat (concat (concat ?x694 ?x560) ?x560) ?x560) ?x560) ?x560)))
 (let ((?x634 (concat (concat (concat (concat (concat ?x548 ?x560) ?x560) ?x560) ?x560) ?x560)))
 (let ((?x500 (concat (concat (concat (concat (concat ?x634 ?x560) ?x560) ?x560) ?x560) ?x560)))
 (let ((?x568 (concat (concat ?x500 ?x560) ?x577)))
 (let ((?x622 (bvashr ?x568 (_ bv1 64))))
 (let ((?x542 ((_ extract 7 0) ?x622)))
 (let ((?x668 (bvand ?x542 (_ bv1 8))))
 (let (($x795 (and (distinct (_ bv0 8) ?x668) true)))
 (let (($x3659 (and $x795 $x572 $x356 $x155 $x14 $x4557)))
 (let (($x729 (= (_ bv0 8) ?x668)))
 (let ((?x819 ((_ extract 31 31) ?x622)))
 (let ((?x871 (concat (_ bv0 31) ?x819)))
 (let ((?x662 ((_ extract 31 0) ?x622)))
 (let ((?x683 (bvadd ?x662 ?x871)))
 (let ((?x852 ((_ extract 31 31) ?x683)))
 (let ((?x678 (concat (concat (concat (concat (concat ?x852 ?x852) ?x852) ?x852) ?x852) ?x852)))
 (let ((?x898 (concat (concat (concat (concat (concat ?x678 ?x852) ?x852) ?x852) ?x852) ?x852)))
 (let ((?x751 (concat (concat (concat (concat (concat ?x898 ?x852) ?x852) ?x852) ?x852) ?x852)))
 (let ((?x563 (concat (concat (concat (concat (concat ?x751 ?x852) ?x852) ?x852) ?x852) ?x852)))
 (let ((?x784 (concat (concat (concat (concat (concat ?x563 ?x852) ?x852) ?x852) ?x852) ?x852)))
 (let ((?x849 (concat (concat (concat (concat (concat ?x784 ?x852) ?x852) ?x852) ?x852) ?x852)))
 (let ((?x902 (concat (concat ?x849 ?x852) ?x683)))
 (let ((?x723 (bvashr ?x902 (_ bv1 64))))
 (let ((?x716 ((_ extract 7 0) ?x723)))
 (let ((?x830 (bvand ?x716 (_ bv1 8))))
 (let (($x903 (and (distinct (_ bv0 8) ?x830) true)))
 (let (($x5311 (and $x903 $x729 $x572 $x356 $x155 $x14 $x4557)))
 (let (($x545 (= (_ bv0 8) ?x830)))
 (let ((?x1039 ((_ extract 31 31) ?x723)))
 (let ((?x810 (concat (_ bv0 31) ?x1039)))
 (let ((?x836 ((_ extract 31 0) ?x723)))
 (let ((?x1085 (bvadd ?x836 ?x810)))
 (let ((?x1076 ((_ extract 31 31) ?x1085)))
 (let ((?x860 (concat (concat (concat (concat (concat ?x1076 ?x1076) ?x1076) ?x1076) ?x1076) ?x1076)))
 (let ((?x693 (concat (concat (concat (concat (concat ?x860 ?x1076) ?x1076) ?x1076) ?x1076) ?x1076)))
 (let ((?x1074 (concat (concat (concat (concat (concat ?x693 ?x1076) ?x1076) ?x1076) ?x1076) ?x1076)))
 (let ((?x883 (concat (concat (concat (concat (concat ?x1074 ?x1076) ?x1076) ?x1076) ?x1076) ?x1076)))
 (let ((?x1033 (concat (concat (concat (concat (concat ?x883 ?x1076) ?x1076) ?x1076) ?x1076) ?x1076)))
 (let ((?x862 (concat (concat (concat (concat (concat ?x1033 ?x1076) ?x1076) ?x1076) ?x1076) ?x1076)))
 (let ((?x892 (concat (concat ?x862 ?x1076) ?x1085)))
 (let ((?x924 (bvashr ?x892 (_ bv1 64))))
 (let ((?x994 ((_ extract 7 0) ?x924)))
 (let ((?x549 (bvand ?x994 (_ bv1 8))))
 (let (($x1093 (and (distinct (_ bv0 8) ?x549) true)))
 (let (($x4575 (and $x1093 $x545 $x729 $x572 $x356 $x155 $x14 $x4557)))
 (let (($x670 (= (_ bv0 8) ?x549)))
 (let ((?x1204 ((_ extract 31 31) ?x924)))
 (let ((?x1071 (concat (_ bv0 31) ?x1204)))
 (let ((?x95 ((_ extract 31 0) ?x924)))
 (let ((?x1174 (bvadd ?x95 ?x1071)))
 (let ((?x884 ((_ extract 31 31) ?x1174)))
 (let ((?x1236 (concat (concat (concat (concat (concat ?x884 ?x884) ?x884) ?x884) ?x884) ?x884)))
 (let ((?x1290 (concat (concat (concat (concat (concat ?x1236 ?x884) ?x884) ?x884) ?x884) ?x884)))
 (let ((?x1140 (concat (concat (concat (concat (concat ?x1290 ?x884) ?x884) ?x884) ?x884) ?x884)))
 (let ((?x1223 (concat (concat (concat (concat (concat ?x1140 ?x884) ?x884) ?x884) ?x884) ?x884)))
 (let ((?x882 (concat (concat (concat (concat (concat ?x1223 ?x884) ?x884) ?x884) ?x884) ?x884)))
 (let ((?x1116 (concat (concat (concat (concat (concat ?x882 ?x884) ?x884) ?x884) ?x884) ?x884)))
 (let ((?x1239 (concat (concat ?x1116 ?x884) ?x1174)))
 (let ((?x1179 (bvashr ?x1239 (_ bv1 64))))
 (let ((?x895 ((_ extract 7 0) ?x1179)))
 (let ((?x1284 (bvand ?x895 (_ bv1 8))))
 (let (($x814 (and (distinct (_ bv0 8) ?x1284) true)))
 (let (($x4243 (and $x814 $x670 $x545 $x729 $x572 $x356 $x155 $x14 $x4557)))
 (let (($x999 (= (_ bv0 8) ?x1284)))
 (let ((?x1251 ((_ extract 31 31) ?x1179)))
 (let ((?x1373 (concat (_ bv0 31) ?x1251)))
 (let ((?x964 ((_ extract 31 0) ?x1179)))
 (let ((?x1452 (bvadd ?x964 ?x1373)))
 (let ((?x1406 ((_ extract 31 31) ?x1452)))
 (let ((?x1415 (concat (concat (concat (concat (concat ?x1406 ?x1406) ?x1406) ?x1406) ?x1406) ?x1406)))
 (let ((?x1166 (concat (concat (concat (concat (concat ?x1415 ?x1406) ?x1406) ?x1406) ?x1406) ?x1406)))
 (let ((?x1420 (concat (concat (concat (concat (concat ?x1166 ?x1406) ?x1406) ?x1406) ?x1406) ?x1406)))
 (let ((?x1474 (concat (concat (concat (concat (concat ?x1420 ?x1406) ?x1406) ?x1406) ?x1406) ?x1406)))
 (let ((?x1384 (concat (concat (concat (concat (concat ?x1474 ?x1406) ?x1406) ?x1406) ?x1406) ?x1406)))
 (let ((?x1224 (concat (concat (concat (concat (concat ?x1384 ?x1406) ?x1406) ?x1406) ?x1406) ?x1406)))
 (let ((?x1288 (concat (concat ?x1224 ?x1406) ?x1452)))
 (let ((?x1098 (bvashr ?x1288 (_ bv1 64))))
 (let ((?x1463 ((_ extract 7 0) ?x1098)))
 (let ((?x1357 (bvand ?x1463 (_ bv1 8))))
 (let (($x1401 (and (distinct (_ bv0 8) ?x1357) true)))
 (let (($x4985 (and $x1401 $x999 $x670 $x545 $x729 $x572 $x356 $x155 $x14 $x4557)))
 (let (($x761 (= (_ bv0 8) ?x1357)))
 (let ((?x1102 ((_ extract 31 31) ?x1098)))
 (let ((?x1532 (concat (_ bv0 31) ?x1102)))
 (let ((?x896 ((_ extract 31 0) ?x1098)))
 (let ((?x1548 (bvadd ?x896 ?x1532)))
 (let ((?x1218 ((_ extract 31 31) ?x1548)))
 (let ((?x1254 (concat (concat (concat (concat (concat ?x1218 ?x1218) ?x1218) ?x1218) ?x1218) ?x1218)))
 (let ((?x1194 (concat (concat (concat (concat (concat ?x1254 ?x1218) ?x1218) ?x1218) ?x1218) ?x1218)))
 (let ((?x1466 (concat (concat (concat (concat (concat ?x1194 ?x1218) ?x1218) ?x1218) ?x1218) ?x1218)))
 (let ((?x1255 (concat (concat (concat (concat (concat ?x1466 ?x1218) ?x1218) ?x1218) ?x1218) ?x1218)))
 (let ((?x1408 (concat (concat (concat (concat (concat ?x1255 ?x1218) ?x1218) ?x1218) ?x1218) ?x1218)))
 (let ((?x1516 (concat (concat (concat (concat (concat ?x1408 ?x1218) ?x1218) ?x1218) ?x1218) ?x1218)))
 (let ((?x1294 (concat (concat ?x1516 ?x1218) ?x1548)))
 (let ((?x1400 (bvashr ?x1294 (_ bv1 64))))
 (let ((?x1562 ((_ extract 7 0) ?x1400)))
 (let ((?x1041 (bvand ?x1562 (_ bv1 8))))
 (let (($x1536 (and (distinct (_ bv0 8) ?x1041) true)))
 (let (($x3543 (and $x1536 $x761 $x999 $x670 $x545 $x729 $x572 $x356 $x155 $x14 $x4557)))
 (let (($x1135 (= (_ bv0 8) ?x1041)))
 (let ((?x1848 ((_ extract 31 31) ?x1400)))
 (let ((?x1398 (concat (_ bv0 31) ?x1848)))
 (let ((?x1476 ((_ extract 31 0) ?x1400)))
 (let ((?x1022 (bvadd ?x1476 ?x1398)))
 (let ((?x773 ((_ extract 31 31) ?x1022)))
 (let ((?x1849 (concat (concat (concat (concat (concat ?x773 ?x773) ?x773) ?x773) ?x773) ?x773)))
 (let ((?x1811 (concat (concat (concat (concat (concat ?x1849 ?x773) ?x773) ?x773) ?x773) ?x773)))
 (let ((?x1598 (concat (concat (concat (concat (concat ?x1811 ?x773) ?x773) ?x773) ?x773) ?x773)))
 (let ((?x1193 (concat (concat (concat (concat (concat ?x1598 ?x773) ?x773) ?x773) ?x773) ?x773)))
 (let ((?x1520 (concat (concat (concat (concat (concat ?x1193 ?x773) ?x773) ?x773) ?x773) ?x773)))
 (let ((?x1514 (concat (concat (concat (concat (concat ?x1520 ?x773) ?x773) ?x773) ?x773) ?x773)))
 (let ((?x1617 (concat (concat ?x1514 ?x773) ?x1022)))
 (let ((?x1259 (bvashr ?x1617 (_ bv1 64))))
 (let ((?x1500 ((_ extract 7 0) ?x1259)))
 (let ((?x1479 (bvand ?x1500 (_ bv1 8))))
 (let (($x1773 (and (distinct (_ bv0 8) ?x1479) true)))
 (let (($x4211 (and $x1773 $x1135 $x761 $x999 $x670 $x545 $x729 $x572 $x356 $x155 $x14 $x4557)))
 (let (($x778 (= (_ bv0 8) ?x1479)))
 (let ((?x1901 ((_ extract 31 31) ?x1259)))
 (let ((?x917 (concat (_ bv0 31) ?x1901)))
 (let ((?x1774 ((_ extract 31 0) ?x1259)))
 (let ((?x1794 (bvadd ?x1774 ?x917)))
 (let ((?x1594 ((_ extract 31 31) ?x1794)))
 (let ((?x627 (concat (concat (concat (concat (concat ?x1594 ?x1594) ?x1594) ?x1594) ?x1594) ?x1594)))
 (let ((?x1280 (concat (concat (concat (concat (concat ?x627 ?x1594) ?x1594) ?x1594) ?x1594) ?x1594)))
 (let ((?x1645 (concat (concat (concat (concat (concat ?x1280 ?x1594) ?x1594) ?x1594) ?x1594) ?x1594)))
 (let ((?x1557 (concat (concat (concat (concat (concat ?x1645 ?x1594) ?x1594) ?x1594) ?x1594) ?x1594)))
 (let ((?x1992 (concat (concat (concat (concat (concat ?x1557 ?x1594) ?x1594) ?x1594) ?x1594) ?x1594)))
 (let ((?x1882 (concat (concat (concat (concat (concat ?x1992 ?x1594) ?x1594) ?x1594) ?x1594) ?x1594)))
 (let ((?x1690 (concat (concat ?x1882 ?x1594) ?x1794)))
 (let ((?x2011 (bvashr ?x1690 (_ bv1 64))))
 (let ((?x1625 ((_ extract 7 0) ?x2011)))
 (let ((?x1935 (bvand ?x1625 (_ bv1 8))))
 (let (($x1891 (and (distinct (_ bv0 8) ?x1935) true)))
 (let (($x3868 (and $x1891 $x778 $x1135 $x761 $x999 $x670 $x545 $x729 $x572 $x356 $x155 $x14 $x4557)))
 (let (($x1954 (= (_ bv0 8) ?x1935)))
 (let ((?x1530 ((_ extract 31 31) ?x2011)))
 (let ((?x1839 (concat (_ bv0 31) ?x1530)))
 (let ((?x1843 ((_ extract 31 0) ?x2011)))
 (let ((?x2028 (bvadd ?x1843 ?x1839)))
 (let ((?x1143 ((_ extract 31 31) ?x2028)))
 (let ((?x2071 (concat (concat (concat (concat (concat ?x1143 ?x1143) ?x1143) ?x1143) ?x1143) ?x1143)))
 (let ((?x1590 (concat (concat (concat (concat (concat ?x2071 ?x1143) ?x1143) ?x1143) ?x1143) ?x1143)))
 (let ((?x1961 (concat (concat (concat (concat (concat ?x1590 ?x1143) ?x1143) ?x1143) ?x1143) ?x1143)))
 (let ((?x1658 (concat (concat (concat (concat (concat ?x1961 ?x1143) ?x1143) ?x1143) ?x1143) ?x1143)))
 (let ((?x1597 (concat (concat (concat (concat (concat ?x1658 ?x1143) ?x1143) ?x1143) ?x1143) ?x1143)))
 (let ((?x1653 (concat (concat (concat (concat (concat ?x1597 ?x1143) ?x1143) ?x1143) ?x1143) ?x1143)))
 (let ((?x1797 (concat (concat ?x1653 ?x1143) ?x2028)))
 (let ((?x1744 (bvashr ?x1797 (_ bv1 64))))
 (let ((?x2077 ((_ extract 7 0) ?x1744)))
 (let ((?x987 (bvand ?x2077 (_ bv1 8))))
 (let (($x2132 (and (distinct (_ bv0 8) ?x987) true)))
 (let (($x3848 (and $x2132 $x1954 $x778 $x1135 $x761 $x999 $x670 $x545 $x729 $x572 $x356 $x155 $x14 $x4557)))
 (let (($x2185 (= (_ bv0 8) ?x987)))
 (let ((?x2418 ((_ extract 31 31) ?x1744)))
 (let ((?x2283 (concat (_ bv0 31) ?x2418)))
 (let ((?x1573 ((_ extract 31 0) ?x1744)))
 (let ((?x2341 (bvadd ?x1573 ?x2283)))
 (let ((?x785 ((_ extract 31 31) ?x2341)))
 (let ((?x2201 (concat (concat (concat (concat (concat ?x785 ?x785) ?x785) ?x785) ?x785) ?x785)))
 (let ((?x1939 (concat (concat (concat (concat (concat ?x2201 ?x785) ?x785) ?x785) ?x785) ?x785)))
 (let ((?x1710 (concat (concat (concat (concat (concat ?x1939 ?x785) ?x785) ?x785) ?x785) ?x785)))
 (let ((?x2135 (concat (concat (concat (concat (concat ?x1710 ?x785) ?x785) ?x785) ?x785) ?x785)))
 (let ((?x2434 (concat (concat (concat (concat (concat ?x2135 ?x785) ?x785) ?x785) ?x785) ?x785)))
 (let ((?x2385 (concat (concat (concat (concat (concat ?x2434 ?x785) ?x785) ?x785) ?x785) ?x785)))
 (let ((?x2164 (concat (concat ?x2385 ?x785) ?x2341)))
 (let ((?x2250 (bvashr ?x2164 (_ bv1 64))))
 (let ((?x1997 ((_ extract 7 0) ?x2250)))
 (let ((?x1655 (bvand ?x1997 (_ bv1 8))))
 (let (($x2375 (and (distinct (_ bv0 8) ?x1655) true)))
 (let (($x5091 (and $x2375 $x2185 $x1954 $x778 $x1135 $x761 $x999 $x670 $x545 $x729 $x572 $x356 $x155 $x14 $x4557)))
 (let (($x2121 (= (_ bv0 8) ?x1655)))
 (let ((?x2274 ((_ extract 31 31) ?x2250)))
 (let ((?x2225 (concat (_ bv0 31) ?x2274)))
 (let ((?x2219 ((_ extract 31 0) ?x2250)))
 (let ((?x2532 (bvadd ?x2219 ?x2225)))
 (let ((?x2439 ((_ extract 31 31) ?x2532)))
 (let ((?x2292 (concat (concat (concat (concat (concat ?x2439 ?x2439) ?x2439) ?x2439) ?x2439) ?x2439)))
 (let ((?x1944 (concat (concat (concat (concat (concat ?x2292 ?x2439) ?x2439) ?x2439) ?x2439) ?x2439)))
 (let ((?x2229 (concat (concat (concat (concat (concat ?x1944 ?x2439) ?x2439) ?x2439) ?x2439) ?x2439)))
 (let ((?x2455 (concat (concat (concat (concat (concat ?x2229 ?x2439) ?x2439) ?x2439) ?x2439) ?x2439)))
 (let ((?x2154 (concat (concat (concat (concat (concat ?x2455 ?x2439) ?x2439) ?x2439) ?x2439) ?x2439)))
 (let ((?x2571 (concat (concat (concat (concat (concat ?x2154 ?x2439) ?x2439) ?x2439) ?x2439) ?x2439)))
 (let ((?x2588 (concat (concat ?x2571 ?x2439) ?x2532)))
 (let ((?x1751 (bvashr ?x2588 (_ bv1 64))))
 (let ((?x2506 ((_ extract 7 0) ?x1751)))
 (let ((?x2309 (bvand ?x2506 (_ bv1 8))))
 (let (($x2007 (and (distinct (_ bv0 8) ?x2309) true)))
 (let (($x3554 (and $x2007 $x2121 $x2185 $x1954 $x778 $x1135 $x761 $x999 $x670 $x545 $x729 $x572 $x356 $x155 $x14 $x4557)))
 (let (($x2195 (= (_ bv0 8) ?x2309)))
 (let ((?x1407 ((_ extract 31 31) ?x1751)))
 (let ((?x2641 (concat (_ bv0 31) ?x1407)))
 (let ((?x2299 ((_ extract 31 0) ?x1751)))
 (let ((?x2841 (bvadd ?x2299 ?x2641)))
 (let ((?x2767 ((_ extract 31 31) ?x2841)))
 (let ((?x2376 (concat (concat (concat (concat (concat ?x2767 ?x2767) ?x2767) ?x2767) ?x2767) ?x2767)))
 (let ((?x2470 (concat (concat (concat (concat (concat ?x2376 ?x2767) ?x2767) ?x2767) ?x2767) ?x2767)))
 (let ((?x2698 (concat (concat (concat (concat (concat ?x2470 ?x2767) ?x2767) ?x2767) ?x2767) ?x2767)))
 (let ((?x2224 (concat (concat (concat (concat (concat ?x2698 ?x2767) ?x2767) ?x2767) ?x2767) ?x2767)))
 (let ((?x2311 (concat (concat (concat (concat (concat ?x2224 ?x2767) ?x2767) ?x2767) ?x2767) ?x2767)))
 (let ((?x2003 (concat (concat (concat (concat (concat ?x2311 ?x2767) ?x2767) ?x2767) ?x2767) ?x2767)))
 (let ((?x2576 (concat (concat ?x2003 ?x2767) ?x2841)))
 (let ((?x2020 (bvashr ?x2576 (_ bv1 64))))
 (let ((?x2379 ((_ extract 7 0) ?x2020)))
 (let ((?x2757 (bvand ?x2379 (_ bv1 8))))
 (let (($x2505 (and (distinct (_ bv0 8) ?x2757) true)))
 (let (($x3963 (and $x2505 $x2195 $x2121 $x2185 $x1954 $x778 $x1135 $x761 $x999 $x670 $x545 $x729 $x572 $x356 $x155 $x14 $x4557)))
 (let (($x2605 (= (_ bv0 8) ?x2757)))
 (let ((?x2975 ((_ extract 31 31) ?x2020)))
 (let ((?x2749 (concat (_ bv0 31) ?x2975)))
 (let ((?x2631 ((_ extract 31 0) ?x2020)))
 (let ((?x1046 (bvadd ?x2631 ?x2749)))
 (let ((?x2976 ((_ extract 31 31) ?x1046)))
 (let ((?x2745 (concat (concat (concat (concat (concat ?x2976 ?x2976) ?x2976) ?x2976) ?x2976) ?x2976)))
 (let ((?x2176 (concat (concat (concat (concat (concat ?x2745 ?x2976) ?x2976) ?x2976) ?x2976) ?x2976)))
 (let ((?x1893 (concat (concat (concat (concat (concat ?x2176 ?x2976) ?x2976) ?x2976) ?x2976) ?x2976)))
 (let ((?x2956 (concat (concat (concat (concat (concat ?x1893 ?x2976) ?x2976) ?x2976) ?x2976) ?x2976)))
 (let ((?x2830 (concat (concat (concat (concat (concat ?x2956 ?x2976) ?x2976) ?x2976) ?x2976) ?x2976)))
 (let ((?x2958 (concat (concat (concat (concat (concat ?x2830 ?x2976) ?x2976) ?x2976) ?x2976) ?x2976)))
 (let ((?x2859 (concat (concat ?x2958 ?x2976) ?x1046)))
 (let ((?x2809 (bvashr ?x2859 (_ bv1 64))))
 (let ((?x1338 ((_ extract 7 0) ?x2809)))
 (let ((?x2221 (bvand ?x1338 (_ bv1 8))))
 (let (($x2810 (and (distinct (_ bv0 8) ?x2221) true)))
 (let (($x2773 (and $x2810 $x2605 $x2195 $x2121 $x2185 $x1954 $x778 $x1135 $x761 $x999 $x670 $x545 $x729 $x572 $x356 $x155 $x14 $x4557)))
 (let (($x2291 (= (_ bv0 8) ?x2221)))
 (let ((?x2832 ((_ extract 31 31) ?x2809)))
 (let ((?x3117 (concat (_ bv0 31) ?x2832)))
 (let ((?x2785 ((_ extract 31 0) ?x2809)))
 (let ((?x2902 (bvadd ?x2785 ?x3117)))
 (let ((?x2657 ((_ extract 31 31) ?x2902)))
 (let ((?x2549 (concat (concat (concat (concat (concat ?x2657 ?x2657) ?x2657) ?x2657) ?x2657) ?x2657)))
 (let ((?x3019 (concat (concat (concat (concat (concat ?x2549 ?x2657) ?x2657) ?x2657) ?x2657) ?x2657)))
 (let ((?x3090 (concat (concat (concat (concat (concat ?x3019 ?x2657) ?x2657) ?x2657) ?x2657) ?x2657)))
 (let ((?x2160 (concat (concat (concat (concat (concat ?x3090 ?x2657) ?x2657) ?x2657) ?x2657) ?x2657)))
 (let ((?x2999 (concat (concat (concat (concat (concat ?x2160 ?x2657) ?x2657) ?x2657) ?x2657) ?x2657)))
 (let ((?x2530 (concat (concat (concat (concat (concat ?x2999 ?x2657) ?x2657) ?x2657) ?x2657) ?x2657)))
 (let ((?x1951 (concat (concat ?x2530 ?x2657) ?x2902)))
 (let ((?x2728 (bvashr ?x1951 (_ bv1 64))))
 (let ((?x1349 ((_ extract 7 0) ?x2728)))
 (let ((?x3013 (bvand ?x1349 (_ bv1 8))))
 (let (($x3052 (and (distinct (_ bv0 8) ?x3013) true)))
 (let (($x3840 (and $x3052 $x2291 $x2605 $x2195 $x2121 $x2185 $x1954 $x778 $x1135 $x761 $x999 $x670 $x545 $x729 $x572 $x356 $x155 $x14 $x4557)))
 (let (($x1245 (= (_ bv0 8) ?x3013)))
 (let ((?x1743 ((_ extract 31 31) ?x2728)))
 (let ((?x3022 (concat (_ bv0 31) ?x1743)))
 (let ((?x2567 ((_ extract 31 0) ?x2728)))
 (let ((?x3269 (bvadd ?x2567 ?x3022)))
 (let ((?x2967 ((_ extract 31 31) ?x3269)))
 (let ((?x2768 (concat (concat (concat (concat (concat ?x2967 ?x2967) ?x2967) ?x2967) ?x2967) ?x2967)))
 (let ((?x2402 (concat (concat (concat (concat (concat ?x2768 ?x2967) ?x2967) ?x2967) ?x2967) ?x2967)))
 (let ((?x2483 (concat (concat (concat (concat (concat ?x2402 ?x2967) ?x2967) ?x2967) ?x2967) ?x2967)))
 (let ((?x2265 (concat (concat (concat (concat (concat ?x2483 ?x2967) ?x2967) ?x2967) ?x2967) ?x2967)))
 (let ((?x1804 (concat (concat (concat (concat (concat ?x2265 ?x2967) ?x2967) ?x2967) ?x2967) ?x2967)))
 (let ((?x2458 (concat (concat (concat (concat (concat ?x1804 ?x2967) ?x2967) ?x2967) ?x2967) ?x2967)))
 (let ((?x3186 (concat (concat ?x2458 ?x2967) ?x3269)))
 (let ((?x1900 (bvashr ?x3186 (_ bv1 64))))
 (let ((?x3311 ((_ extract 7 0) ?x1900)))
 (let ((?x2721 (bvand ?x3311 (_ bv1 8))))
 (let (($x3252 (and (distinct (_ bv0 8) ?x2721) true)))
 (let (($x4660 (and $x3252 $x1245 $x2291 $x2605 $x2195 $x2121 $x2185 $x1954 $x778 $x1135 $x761 $x999 $x670 $x545 $x729 $x572 $x356 $x155 $x14 $x4557)))
 (let (($x3011 (= (_ bv0 8) ?x2721)))
 (let ((?x3476 ((_ extract 31 31) ?x1900)))
 (let ((?x1604 (concat (_ bv0 31) ?x3476)))
 (let ((?x3210 ((_ extract 31 0) ?x1900)))
 (let ((?x2453 (bvadd ?x3210 ?x1604)))
 (let ((?x2509 ((_ extract 31 31) ?x2453)))
 (let ((?x3480 (concat (concat (concat (concat (concat ?x2509 ?x2509) ?x2509) ?x2509) ?x2509) ?x2509)))
 (let ((?x3513 (concat (concat (concat (concat (concat ?x3480 ?x2509) ?x2509) ?x2509) ?x2509) ?x2509)))
 (let ((?x3325 (concat (concat (concat (concat (concat ?x3513 ?x2509) ?x2509) ?x2509) ?x2509) ?x2509)))
 (let ((?x3048 (concat (concat (concat (concat (concat ?x3325 ?x2509) ?x2509) ?x2509) ?x2509) ?x2509)))
 (let ((?x3023 (concat (concat (concat (concat (concat ?x3048 ?x2509) ?x2509) ?x2509) ?x2509) ?x2509)))
 (let ((?x1323 (concat (concat (concat (concat (concat ?x3023 ?x2509) ?x2509) ?x2509) ?x2509) ?x2509)))
 (let ((?x3391 (concat (concat ?x1323 ?x2509) ?x2453)))
 (let ((?x3426 (bvashr ?x3391 (_ bv1 64))))
 (let ((?x2716 ((_ extract 7 0) ?x3426)))
 (let ((?x3045 (bvand ?x2716 (_ bv1 8))))
 (let (($x2824 (and (distinct (_ bv0 8) ?x3045) true)))
 (let (($x5528 (and $x2824 $x3011 $x1245 $x2291 $x2605 $x2195 $x2121 $x2185 $x1954 $x778 $x1135 $x761 $x999 $x670 $x545 $x729 $x572 $x356 $x155 $x14 $x4557)))
 (let (($x2510 (= (_ bv0 8) ?x3045)))
 (let ((?x3038 ((_ extract 31 31) ?x3426)))
 (let ((?x2639 (concat (_ bv0 31) ?x3038)))
 (let ((?x2919 ((_ extract 31 0) ?x3426)))
 (let ((?x3665 (bvadd ?x2919 ?x2639)))
 (let ((?x3499 ((_ extract 31 31) ?x3665)))
 (let ((?x3703 (concat (concat (concat (concat (concat ?x3499 ?x3499) ?x3499) ?x3499) ?x3499) ?x3499)))
 (let ((?x3242 (concat (concat (concat (concat (concat ?x3703 ?x3499) ?x3499) ?x3499) ?x3499) ?x3499)))
 (let ((?x2923 (concat (concat (concat (concat (concat ?x3242 ?x3499) ?x3499) ?x3499) ?x3499) ?x3499)))
 (let ((?x2961 (concat (concat (concat (concat (concat ?x2923 ?x3499) ?x3499) ?x3499) ?x3499) ?x3499)))
 (let ((?x2812 (concat (concat (concat (concat (concat ?x2961 ?x3499) ?x3499) ?x3499) ?x3499) ?x3499)))
 (let ((?x3511 (concat (concat (concat (concat (concat ?x2812 ?x3499) ?x3499) ?x3499) ?x3499) ?x3499)))
 (let ((?x2518 (concat (concat ?x3511 ?x3499) ?x3665)))
 (let ((?x1307 (bvashr ?x2518 (_ bv1 64))))
 (let ((?x2459 ((_ extract 7 0) ?x1307)))
 (let ((?x2463 (bvand ?x2459 (_ bv1 8))))
 (let (($x3441 (and (distinct (_ bv0 8) ?x2463) true)))
 (let (($x5407 (and $x3441 $x2510 $x3011 $x1245 $x2291 $x2605 $x2195 $x2121 $x2185 $x1954 $x778 $x1135 $x761 $x999 $x670 $x545 $x729 $x572 $x356 $x155 $x14 $x4557)))
 (let (($x2199 (= (_ bv0 8) ?x2463)))
 (let ((?x2205 ((_ extract 31 31) ?x1307)))
 (let ((?x3411 (concat (_ bv0 31) ?x2205)))
 (let ((?x1546 ((_ extract 31 0) ?x1307)))
 (let ((?x1248 (bvadd ?x1546 ?x3411)))
 (let ((?x3353 ((_ extract 31 31) ?x1248)))
 (let ((?x3343 (concat (concat (concat (concat (concat ?x3353 ?x3353) ?x3353) ?x3353) ?x3353) ?x3353)))
 (let ((?x3875 (concat (concat (concat (concat (concat ?x3343 ?x3353) ?x3353) ?x3353) ?x3353) ?x3353)))
 (let ((?x3799 (concat (concat (concat (concat (concat ?x3875 ?x3353) ?x3353) ?x3353) ?x3353) ?x3353)))
 (let ((?x2980 (concat (concat (concat (concat (concat ?x3799 ?x3353) ?x3353) ?x3353) ?x3353) ?x3353)))
 (let ((?x2831 (concat (concat (concat (concat (concat ?x2980 ?x3353) ?x3353) ?x3353) ?x3353) ?x3353)))
 (let ((?x3752 (concat (concat (concat (concat (concat ?x2831 ?x3353) ?x3353) ?x3353) ?x3353) ?x3353)))
 (let ((?x2427 (concat (concat ?x3752 ?x3353) ?x1248)))
 (let ((?x3774 (bvashr ?x2427 (_ bv1 64))))
 (let ((?x3106 ((_ extract 7 0) ?x3774)))
 (let ((?x3456 (bvand ?x3106 (_ bv1 8))))
 (let (($x3167 (and (distinct (_ bv0 8) ?x3456) true)))
 (let (($x4265 (and $x3167 $x2199 $x2510 $x3011 $x1245 $x2291 $x2605 $x2195 $x2121 $x2185 $x1954 $x778 $x1135 $x761 $x999 $x670 $x545 $x729 $x572 $x356 $x155 $x14 $x4557)))
 (let (($x2857 (= (_ bv0 8) ?x3456)))
 (let ((?x3335 ((_ extract 31 31) ?x3774)))
 (let ((?x2948 (concat (_ bv0 31) ?x3335)))
 (let ((?x3489 ((_ extract 31 0) ?x3774)))
 (let ((?x3677 (bvadd ?x3489 ?x2948)))
 (let ((?x3482 ((_ extract 31 31) ?x3677)))
 (let ((?x3888 (concat (concat (concat (concat (concat ?x3482 ?x3482) ?x3482) ?x3482) ?x3482) ?x3482)))
 (let ((?x3912 (concat (concat (concat (concat (concat ?x3888 ?x3482) ?x3482) ?x3482) ?x3482) ?x3482)))
 (let ((?x4049 (concat (concat (concat (concat (concat ?x3912 ?x3482) ?x3482) ?x3482) ?x3482) ?x3482)))
 (let ((?x3401 (concat (concat (concat (concat (concat ?x4049 ?x3482) ?x3482) ?x3482) ?x3482) ?x3482)))
 (let ((?x2952 (concat (concat (concat (concat (concat ?x3401 ?x3482) ?x3482) ?x3482) ?x3482) ?x3482)))
 (let ((?x3789 (concat (concat (concat (concat (concat ?x2952 ?x3482) ?x3482) ?x3482) ?x3482) ?x3482)))
 (let ((?x3878 (concat (concat ?x3789 ?x3482) ?x3677)))
 (let ((?x3356 (bvashr ?x3878 (_ bv1 64))))
 (let ((?x3769 ((_ extract 7 0) ?x3356)))
 (let ((?x4083 (bvand ?x3769 (_ bv1 8))))
 (let (($x3975 (and (distinct (_ bv0 8) ?x4083) true)))
 (let (($x5628 (and $x3975 $x2857 $x2199 $x2510 $x3011 $x1245 $x2291 $x2605 $x2195 $x2121 $x2185 $x1954 $x778 $x1135 $x761 $x999 $x670 $x545 $x729 $x572 $x356 $x155 $x14 $x4557)))
 (let (($x1787 (= (_ bv0 8) ?x4083)))
 (let ((?x3475 ((_ extract 31 31) ?x3356)))
 (let ((?x2106 (concat (_ bv0 31) ?x3475)))
 (let ((?x3654 ((_ extract 31 0) ?x3356)))
 (let ((?x3139 (bvadd ?x3654 ?x2106)))
 (let ((?x3481 ((_ extract 31 31) ?x3139)))
 (let ((?x3937 (concat (concat (concat (concat (concat ?x3481 ?x3481) ?x3481) ?x3481) ?x3481) ?x3481)))
 (let ((?x2938 (concat (concat (concat (concat (concat ?x3937 ?x3481) ?x3481) ?x3481) ?x3481) ?x3481)))
 (let ((?x3776 (concat (concat (concat (concat (concat ?x2938 ?x3481) ?x3481) ?x3481) ?x3481) ?x3481)))
 (let ((?x2860 (concat (concat (concat (concat (concat ?x3776 ?x3481) ?x3481) ?x3481) ?x3481) ?x3481)))
 (let ((?x3474 (concat (concat (concat (concat (concat ?x2860 ?x3481) ?x3481) ?x3481) ?x3481) ?x3481)))
 (let ((?x3086 (concat (concat (concat (concat (concat ?x3474 ?x3481) ?x3481) ?x3481) ?x3481) ?x3481)))
 (let ((?x2150 (concat (concat ?x3086 ?x3481) ?x3139)))
 (let ((?x3217 (bvashr ?x2150 (_ bv1 64))))
 (let ((?x3898 ((_ extract 7 0) ?x3217)))
 (let ((?x3915 (bvand ?x3898 (_ bv1 8))))
 (let (($x2544 (and (distinct (_ bv0 8) ?x3915) true)))
 (let (($x3323 (and $x2544 $x1787 $x2857 $x2199 $x2510 $x3011 $x1245 $x2291 $x2605 $x2195 $x2121 $x2185 $x1954 $x778 $x1135 $x761 $x999 $x670 $x545 $x729 $x572 $x356 $x155 $x14 $x4557)))
 (let (($x2560 (= (_ bv0 8) ?x3915)))
 (let ((?x3238 ((_ extract 31 31) ?x3217)))
 (let ((?x2774 (concat (_ bv0 31) ?x3238)))
 (let ((?x2245 ((_ extract 31 0) ?x3217)))
 (let ((?x3237 (bvadd ?x2245 ?x2774)))
 (let ((?x3503 ((_ extract 31 31) ?x3237)))
 (let ((?x3211 (concat (concat (concat (concat (concat ?x3503 ?x3503) ?x3503) ?x3503) ?x3503) ?x3503)))
 (let ((?x3645 (concat (concat (concat (concat (concat ?x3211 ?x3503) ?x3503) ?x3503) ?x3503) ?x3503)))
 (let ((?x1292 (concat (concat (concat (concat (concat ?x3645 ?x3503) ?x3503) ?x3503) ?x3503) ?x3503)))
 (let ((?x4042 (concat (concat (concat (concat (concat ?x1292 ?x3503) ?x3503) ?x3503) ?x3503) ?x3503)))
 (let ((?x926 (concat (concat (concat (concat (concat ?x4042 ?x3503) ?x3503) ?x3503) ?x3503) ?x3503)))
 (let ((?x3348 (concat (concat (concat (concat (concat ?x926 ?x3503) ?x3503) ?x3503) ?x3503) ?x3503)))
 (let ((?x2380 (concat (concat ?x3348 ?x3503) ?x3237)))
 (let ((?x3259 (bvashr ?x2380 (_ bv1 64))))
 (let ((?x3345 ((_ extract 7 0) ?x3259)))
 (let ((?x3327 (bvand ?x3345 (_ bv1 8))))
 (let (($x3843 (and (distinct (_ bv0 8) ?x3327) true)))
 (let (($x4593 (and $x3843 $x2560 $x1787 $x2857 $x2199 $x2510 $x3011 $x1245 $x2291 $x2605 $x2195 $x2121 $x2185 $x1954 $x778 $x1135 $x761 $x999 $x670 $x545 $x729 $x572 $x356 $x155 $x14 $x4557)))
 (let (($x4242 (= (_ bv0 8) ?x3327)))
 (let ((?x4405 ((_ extract 31 31) ?x3259)))
 (let ((?x4453 (concat (_ bv0 31) ?x4405)))
 (let ((?x4035 ((_ extract 31 0) ?x3259)))
 (let ((?x3873 (bvadd ?x4035 ?x4453)))
 (let ((?x2782 ((_ extract 31 31) ?x3873)))
 (let ((?x4256 (concat (concat (concat (concat (concat ?x2782 ?x2782) ?x2782) ?x2782) ?x2782) ?x2782)))
 (let ((?x4560 (concat (concat (concat (concat (concat ?x4256 ?x2782) ?x2782) ?x2782) ?x2782) ?x2782)))
 (let ((?x2057 (concat (concat (concat (concat (concat ?x4560 ?x2782) ?x2782) ?x2782) ?x2782) ?x2782)))
 (let ((?x3990 (concat (concat (concat (concat (concat ?x2057 ?x2782) ?x2782) ?x2782) ?x2782) ?x2782)))
 (let ((?x4462 (concat (concat (concat (concat (concat ?x3990 ?x2782) ?x2782) ?x2782) ?x2782) ?x2782)))
 (let ((?x3579 (concat (concat (concat (concat (concat ?x4462 ?x2782) ?x2782) ?x2782) ?x2782) ?x2782)))
 (let ((?x2713 (concat (concat ?x3579 ?x2782) ?x3873)))
 (let ((?x3897 (bvashr ?x2713 (_ bv1 64))))
 (let ((?x4203 ((_ extract 7 0) ?x3897)))
 (let ((?x4152 (bvand ?x4203 (_ bv1 8))))
 (let (($x4634 (and (distinct (_ bv0 8) ?x4152) true)))
 (let (($x4563 (and $x4634 $x4242 $x2560 $x1787 $x2857 $x2199 $x2510 $x3011 $x1245 $x2291 $x2605 $x2195 $x2121 $x2185 $x1954 $x778 $x1135 $x761 $x999 $x670 $x545 $x729 $x572 $x356 $x155 $x14 $x4557)))
 (let (($x4448 (= (_ bv0 8) ?x4152)))
 (let ((?x4492 ((_ extract 31 31) ?x3897)))
 (let ((?x3607 (concat (_ bv0 31) ?x4492)))
 (let ((?x2275 ((_ extract 31 0) ?x3897)))
 (let ((?x4601 (bvadd ?x2275 ?x3607)))
 (let ((?x3321 ((_ extract 31 31) ?x4601)))
 (let ((?x4024 (concat (concat (concat (concat (concat ?x3321 ?x3321) ?x3321) ?x3321) ?x3321) ?x3321)))
 (let ((?x4412 (concat (concat (concat (concat (concat ?x4024 ?x3321) ?x3321) ?x3321) ?x3321) ?x3321)))
 (let ((?x3966 (concat (concat (concat (concat (concat ?x4412 ?x3321) ?x3321) ?x3321) ?x3321) ?x3321)))
 (let ((?x2829 (concat (concat (concat (concat (concat ?x3966 ?x3321) ?x3321) ?x3321) ?x3321) ?x3321)))
 (let ((?x4079 (concat (concat (concat (concat (concat ?x2829 ?x3321) ?x3321) ?x3321) ?x3321) ?x3321)))
 (let ((?x3275 (concat (concat (concat (concat (concat ?x4079 ?x3321) ?x3321) ?x3321) ?x3321) ?x3321)))
 (let ((?x3555 (concat (concat ?x3275 ?x3321) ?x4601)))
 (let ((?x4504 (bvashr ?x3555 (_ bv1 64))))
 (let ((?x2027 ((_ extract 7 0) ?x4504)))
 (let ((?x2272 (bvand ?x2027 (_ bv1 8))))
 (let (($x4733 (and (distinct (_ bv0 8) ?x2272) true)))
 (let (($x5616 (and $x4733 $x4448 $x4242 $x2560 $x1787 $x2857 $x2199 $x2510 $x3011 $x1245 $x2291 $x2605 $x2195 $x2121 $x2185 $x1954 $x778 $x1135 $x761 $x999 $x670 $x545 $x729 $x572 $x356 $x155 $x14 $x4557)))
 (let (($x2658 (= (_ bv0 8) ?x2272)))
 (let ((?x4930 ((_ extract 31 31) ?x4504)))
 (let ((?x3995 (concat (_ bv0 31) ?x4930)))
 (let ((?x2598 ((_ extract 31 0) ?x4504)))
 (let ((?x4867 (bvadd ?x2598 ?x3995)))
 (let ((?x4258 ((_ extract 31 31) ?x4867)))
 (let ((?x4685 (concat (concat (concat (concat (concat ?x4258 ?x4258) ?x4258) ?x4258) ?x4258) ?x4258)))
 (let ((?x2905 (concat (concat (concat (concat (concat ?x4685 ?x4258) ?x4258) ?x4258) ?x4258) ?x4258)))
 (let ((?x4604 (concat (concat (concat (concat (concat ?x2905 ?x4258) ?x4258) ?x4258) ?x4258) ?x4258)))
 (let ((?x4317 (concat (concat (concat (concat (concat ?x4604 ?x4258) ?x4258) ?x4258) ?x4258) ?x4258)))
 (let ((?x3114 (concat (concat (concat (concat (concat ?x4317 ?x4258) ?x4258) ?x4258) ?x4258) ?x4258)))
 (let ((?x4746 (concat (concat (concat (concat (concat ?x3114 ?x4258) ?x4258) ?x4258) ?x4258) ?x4258)))
 (let ((?x4919 (concat (concat ?x4746 ?x4258) ?x4867)))
 (let ((?x4687 (bvashr ?x4919 (_ bv1 64))))
 (let ((?x4168 ((_ extract 7 0) ?x4687)))
 (let ((?x4866 (bvand ?x4168 (_ bv1 8))))
 (let (($x4768 (and (distinct (_ bv0 8) ?x4866) true)))
 (let (($x5626 (and $x4768 $x2658 $x4448 $x4242 $x2560 $x1787 $x2857 $x2199 $x2510 $x3011 $x1245 $x2291 $x2605 $x2195 $x2121 $x2185 $x1954 $x778 $x1135 $x761 $x999 $x670 $x545 $x729 $x572 $x356 $x155 $x14 $x4557)))
 (let (($x4497 (= (_ bv0 8) ?x4866)))
 (let ((?x4268 ((_ extract 31 31) ?x4687)))
 (let ((?x3977 (concat (_ bv0 31) ?x4268)))
 (let ((?x3381 ((_ extract 31 0) ?x4687)))
 (let ((?x1777 (bvadd ?x3381 ?x3977)))
 (let ((?x4895 ((_ extract 31 31) ?x1777)))
 (let ((?x4006 (concat (concat (concat (concat (concat ?x4895 ?x4895) ?x4895) ?x4895) ?x4895) ?x4895)))
 (let ((?x4908 (concat (concat (concat (concat (concat ?x4006 ?x4895) ?x4895) ?x4895) ?x4895) ?x4895)))
 (let ((?x4372 (concat (concat (concat (concat (concat ?x4908 ?x4895) ?x4895) ?x4895) ?x4895) ?x4895)))
 (let ((?x3051 (concat (concat (concat (concat (concat ?x4372 ?x4895) ?x4895) ?x4895) ?x4895) ?x4895)))
 (let ((?x3950 (concat (concat (concat (concat (concat ?x3051 ?x4895) ?x4895) ?x4895) ?x4895) ?x4895)))
 (let ((?x2643 (concat (concat (concat (concat (concat ?x3950 ?x4895) ?x4895) ?x4895) ?x4895) ?x4895)))
 (let ((?x4199 (concat (concat ?x2643 ?x4895) ?x1777)))
 (let ((?x3826 (bvashr ?x4199 (_ bv1 64))))
 (let ((?x4548 ((_ extract 7 0) ?x3826)))
 (let ((?x517 (bvand ?x4548 (_ bv1 8))))
 (let (($x5201 (and (distinct (_ bv0 8) ?x517) true)))
 (let (($x5581 (and $x5201 $x4497 $x2658 $x4448 $x4242 $x2560 $x1787 $x2857 $x2199 $x2510 $x3011 $x1245 $x2291 $x2605 $x2195 $x2121 $x2185 $x1954 $x778 $x1135 $x761 $x999 $x670 $x545 $x729 $x572 $x356 $x155 $x14 $x4557)))
 (let (($x4759 (= (_ bv0 8) ?x517)))
 (let ((?x3289 ((_ extract 31 31) ?x3826)))
 (let ((?x3705 (concat (_ bv0 31) ?x3289)))
 (let ((?x4259 ((_ extract 31 0) ?x3826)))
 (let ((?x4835 (bvadd ?x4259 ?x3705)))
 (let ((?x447 ((_ extract 31 31) ?x4835)))
 (let ((?x5284 (concat (concat (concat (concat (concat ?x447 ?x447) ?x447) ?x447) ?x447) ?x447)))
 (let ((?x5162 (concat (concat (concat (concat (concat ?x5284 ?x447) ?x447) ?x447) ?x447) ?x447)))
 (let ((?x4623 (concat (concat (concat (concat (concat ?x5162 ?x447) ?x447) ?x447) ?x447) ?x447)))
 (let ((?x4100 (concat (concat (concat (concat (concat ?x4623 ?x447) ?x447) ?x447) ?x447) ?x447)))
 (let ((?x4482 (concat (concat (concat (concat (concat ?x4100 ?x447) ?x447) ?x447) ?x447) ?x447)))
 (let ((?x3919 (concat (concat (concat (concat (concat ?x4482 ?x447) ?x447) ?x447) ?x447) ?x447)))
 (let ((?x2308 (concat (concat ?x3919 ?x447) ?x4835)))
 (let ((?x4901 (bvashr ?x2308 (_ bv1 64))))
 (let ((?x4831 ((_ extract 7 0) ?x4901)))
 (let ((?x4918 (bvand ?x4831 (_ bv1 8))))
 (let (($x4591 (and (distinct (_ bv0 8) ?x4918) true)))
 (let (($x5270 (and $x4591 $x4759 $x4497 $x2658 $x4448 $x4242 $x2560 $x1787 $x2857 $x2199 $x2510 $x3011 $x1245 $x2291 $x2605 $x2195 $x2121 $x2185 $x1954 $x778 $x1135 $x761 $x999 $x670 $x545 $x729 $x572 $x356 $x155 $x14 $x4557)))
 (let (($x3295 (= (_ bv0 8) ?x4918)))
 (let ((?x4877 ((_ extract 31 31) ?x4901)))
 (let ((?x3240 (concat (_ bv0 31) ?x4877)))
 (let ((?x3466 ((_ extract 31 0) ?x4901)))
 (let ((?x5191 (bvadd ?x3466 ?x3240)))
 (let ((?x3448 ((_ extract 31 31) ?x5191)))
 (let ((?x4246 (concat (concat (concat (concat (concat ?x3448 ?x3448) ?x3448) ?x3448) ?x3448) ?x3448)))
 (let ((?x4777 (concat (concat (concat (concat (concat ?x4246 ?x3448) ?x3448) ?x3448) ?x3448) ?x3448)))
 (let ((?x4658 (concat (concat (concat (concat (concat ?x4777 ?x3448) ?x3448) ?x3448) ?x3448) ?x3448)))
 (let ((?x4672 (concat (concat (concat (concat (concat ?x4658 ?x3448) ?x3448) ?x3448) ?x3448) ?x3448)))
 (let ((?x4692 (concat (concat (concat (concat (concat ?x4672 ?x3448) ?x3448) ?x3448) ?x3448) ?x3448)))
 (let ((?x3713 (concat (concat (concat (concat (concat ?x4692 ?x3448) ?x3448) ?x3448) ?x3448) ?x3448)))
 (let ((?x4894 (concat (concat ?x3713 ?x3448) ?x5191)))
 (let ((?x5424 (bvashr ?x4894 (_ bv1 64))))
 (let ((?x4110 ((_ extract 7 0) ?x5424)))
 (let ((?x5126 (bvand ?x4110 (_ bv1 8))))
 (let (($x5473 (and (distinct (_ bv0 8) ?x5126) true)))
 (let (($x4720 (and $x5473 $x3295 $x4759 $x4497 $x2658 $x4448 $x4242 $x2560 $x1787 $x2857 $x2199 $x2510 $x3011 $x1245 $x2291 $x2605 $x2195 $x2121 $x2185 $x1954 $x778 $x1135 $x761 $x999 $x670 $x545 $x729 $x572 $x356 $x155 $x14 $x4557)))
 (let (($x3956 (or $x4720 $x5270 $x5581 $x5626 $x5616 $x4563 $x4593 $x3323 $x5628 $x4265 $x5407 $x5528 $x4660 $x3840 $x2773 $x3963 $x3554 $x5091 $x3848 $x3868 $x4211 $x3543 $x4985 $x4243 $x4575 $x5311 $x3659 $x3994 $x4159 $x4926 $x4997)))
 (let (($x4949 (not $x3956)))
 (let (($x4536 (and $x4949 $x5365)))
 (let (($x3679 (and $x3956 $x5527)))
 (let (($x4798 (or $x3679 $x4536)))
 (not $x4798)))))))))))))))))))))))))))))))))))))))))))))))))))))))))))))))))))))))))))))))))))))))))))))))))))))))))))))))))))))))))))))))))))))))))))))))))))))))))))))))))))))))))))))))))))))))))))))))))))))))))))))))))))))))))))))))))))))))))))))))))))))))))))))))))))))))))))))))))))))))))))))))))))))))))))))))))))))))))))))))))))))))))))))))))))))))))))))))))))))))))))))))))))))))))))))))))))))))))))))))))))))))))))))))))))))))))))))))))))))))))))))))))))))))))))))))))))))))))))))))))))))))))))))))))))))))))))))))))))))))))))))))))))))))))))))))))))))))))))))))))))))))))))))))
(check-sat)
